
--- Job Single node system.gms Start 11/25/21 07:44:42 34.2.0 r6925a71 WEX-WEI x86 64bit/MS Windows
--- Applying:
    C:\GAMS\34\gmsprmNT.txt
--- GAMS Parameters defined
    Input "Z:\MitarbeiterOrdner\Bernecker\GitHub Desktop Project Foulder\Quant-Reliability-Energy-Systems\Model & Data\Single node system.gms"
    PageSize 0
    ScrDir "Z:\MitarbeiterOrdner\Bernecker\GitHub Desktop Project Foulder\Quant-Reliability-Energy-Systems\Model & Data\225a\"
    SysDir C:\GAMS\34\
    LogOption 3
    ErrMsg 1
    ErrorLog 99
    IDE 1
    LstTitleLeftAligned 1
Licensee: Small MUD - 5 User License                     S201118/0001AN-WIN
          BTU Cottbus-Senftenberg, FG Energiewirtschaft              DC5591
          C:\Users\berne\Documents\GAMS\gamslice.txt
GAMS 34.2.0   Copyright (C) 1987-2021 GAMS Development. All rights reserved
--- Starting compilation
--- Single node system.gms(93) 3 Mb
--- call gdxxrw Data_Input.xlsx @IEEE.txt

GDXXRW           34.2.0 r6925a71 Released Feb 05, 2021 WEI x86 64bit/MS Window
Input file : Z:\MitarbeiterOrdner\Bernecker\GitHub Desktop Project Foulder\Quant-Reliability-Energy-Systems\Model & Data\Data_Input.xlsx
Output file: Z:\MitarbeiterOrdner\Bernecker\GitHub Desktop Project Foulder\Quant-Reliability-Energy-Systems\Model & Data\Data_Input.gdx
Total time = 3656 Ms
--- Single node system.gms(94) 3 Mb
--- GDXin=Z:\MitarbeiterOrdner\Bernecker\GitHub Desktop Project Foulder\Quant-Reliability-Energy-Systems\Model & Data\Data_Input.gdx
--- GDX File ($gdxIn) Z:\MitarbeiterOrdner\Bernecker\GitHub Desktop Project Foulder\Quant-Reliability-Energy-Systems\Model & Data\Data_Input.gdx
--- Single node system.gms(230) 3 Mb
--- Starting execution: elapsed 0:00:05.648
--- Single node system.gms(201) 4 Mb
--- Generating LP model TEP_IEEE_24_to_single_node
--- Single node system.gms(204) 5 Mb
---   6,043 rows  3,313 columns  11,692 non-zeroes
--- Executing CPLEX (Solvelink=2): elapsed 0:00:09.254

IBM ILOG CPLEX   34.2.0 r6925a71 Released Feb 05, 2021 WEI x86 64bit/MS Window

--- GAMS/Cplex Link licensed for continuous and discrete problems.
--- Space for names approximately 0.24 Mb
--- Use option 'names no' to turn use of names off
--- GMO memory 2.06 Mb (peak 2.09 Mb)
--- Dictionary memory 0.00 Mb
--- Cplex 20.1.0.0 link memory 0.13 Mb (peak 0.57 Mb)
--- Starting Cplex

Version identifier: 20.1.0.0 | 2020-11-10 | 9bedb6d68
CPXPARAM_Advance                                 0
CPXPARAM_Threads                                 1
CPXPARAM_MIP_Display                             4
CPXPARAM_MIP_Tolerances_AbsMIPGap                0
Tried aggregator 1 time.
LP Presolve eliminated 5418 rows and 1981 columns.
Aggregator did 3 substitutions.
Reduced LP has 621 rows, 1329 columns, and 2139 nonzeros.
Presolve time = 0.02 sec. (3.69 ticks)
Symmetry aggregator did 1416 additional substitutions.
Initializing dual steep norms . . .

Iteration log . . .
Iteration:     1   Dual infeasibility =             0.000000
Iteration:     2   Dual objective     =     -64113904.335000
Iteration:    63   Dual objective     =     -57897678.364350
Iteration:   133   Dual objective     =       5044708.854600

Dual crossover.
  Dual:  Fixed no variables.
  Primal:  Fixing 6 variables.
        5 PMoves:  Infeasibility  0.00000000e+00  Objective  5.08250989e+06
        0 PMoves:  Infeasibility  0.00000000e+00  Objective  5.08250989e+06
  Primal:  Pushed 0, exchanged 6.

--- LP status (1): optimal.
--- Cplex Time: 0.02sec (det. 6.83 ticks)


Optimal solution found
Objective:      5082509.889900

--- Reading solution for model TEP_IEEE_24_to_single_node
--- Single node system.gms(204) 5 Mb  20 secs
--- Executing after solve: elapsed 0:00:26.766
--- Single node system.gms(218) 5 Mb
--- GDX File (execute_unload) Z:\MitarbeiterOrdner\Bernecker\GitHub Desktop Project Foulder\Quant-Reliability-Energy-Systems\Model & Data\check_single.gdx
--- Single node system.gms(230) 5 Mb

GDXXRW           34.2.0 r6925a71 Released Feb 05, 2021 WEI x86 64bit/MS Window
Input file : Z:\MitarbeiterOrdner\Bernecker\GitHub Desktop Project Foulder\Quant-Reliability-Energy-Systems\Model & Data\check_single.gdx
Output file: Z:\MitarbeiterOrdner\Bernecker\GitHub Desktop Project Foulder\Quant-Reliability-Energy-Systems\Model & Data\output.xlsx
Total time = 7187 Ms
--- Profile Summary (7 records processed)
    14.812   0.005GB       204 Solve Read TEP_IEEE_24_to_single_node
     7.953   0.005GB       230 Execute    
     2.766   0.005GB       204 Solve Fini TEP_IEEE_24_to_single_node (11692)
     2.703   0.005GB       204 Solve Alg  TEP_IEEE_24_to_single_node
     1.188   0.005GB       218 Unload     
     0.766   0.004GB       167 Equation   Total_costs (1)
     0.078   0.005GB       183 Equation   max_cap (936)
*** Status: Normal completion
--- Single node system.gms(230) 5 Mb  8 secs
--- Job Single node system.gms Stop 11/25/21 07:45:18 elapsed 0:00:36.267
